160
1000000
32591
383717
49333
844171
620986
687452
458690
572443
129158
320774
601491
86291
21691
203816
204358
983798
330415
149633
94413
625440
542976
23719
777129
405571
841552
10877
144219
804945
33619
481061
98194
897451
91478
86491
675327
243466
43840
88492
232368
225724
851842
439892
10102
611262
656464
883622
425691
905587
147047
831323
388738
31569
14688
486
83233
8815
420091
245533
135891
215547
16202
173660
143471
649043
103375
185397
541907
656682
116378
532122
57508
314622
856154
727914
771771
97001
155343
669585
316411
394145
171811
237054
412101
179072
213760
740657
473817
442599
457024
102549
287903
615053
427639
557401
522677
213885
687063
394152
975544
374560
541310
686183
795642
56318
680908
373487
650998
506525
8121
164246
99323
201634
742015
419815
384947
277332
280420
272086
31692
148158
84010
814776
19055
579909
235348
312937
626555
350523
807168
637077
629097
56540
164078
458083
323447
631838
185976
512475
916767
436309
12400
24456
350957
38971
125637
324673
762946
312018
343536
754467
587899
195055
450439
961029
44225
24466
549008
105207
136985
370903
